GeneratedTests/Random_7/Random_7_17.tsp
NAME: Random_7_17
TYPE: TSP
DIMENSION: 7
EDGE_WEIGHT_TYPE: EUC_2D
NODE_COORD_SECTION
1 8.875103 1.4510167
2 20.60113 13.789551
3 1.3757997 13.596617
4 0.5226338 10.979602
5 7.048389 11.259238
6 7.2171903 8.557637
7 17.870378 14.633562
EOF
