GeneratedTests/Random_7/Random_7_17.txt
NAME: Random_7_17
TYPE: TSP
DIMENSION: 7
EDGE_WEIGHT_TYPE: EUC_2D
NODE_COORD_SECTION
1 18.735565 5.747133
2 6.040432 3.3303504
3 20.718142 20.472466
4 4.299527 10.060361
5 4.2877674 11.511179
6 14.015171 15.831555
7 17.239964 16.066963
EOF
